DATASET = "thpack7";
INSTANCE = "015";

WIDTH = 233;
HEIGHT = 220;
LENGTH = 587;

NO_OF_SHAPES = 20;
size = [|
  100,44,37 |
  90,78,55 |
  65,57,42 |
  85,58,41 |
  81,69,50 |
  84,78,51 |
  109,73,73 |
  73,58,52 |
  73,49,40 |
  120,60,39 |
  111,80,68 |
  71,70,53 |
  71,70,59 |
  93,78,33 |
  83,71,43 |
  49,48,23 |
  94,49,44 |
  66,30,27 |
  77,54,40 |
  79,73,61 |
|];

verticality = [|
  0,1,1 |
  1,1,1 |
  1,1,1 |
  0,1,1 |
  1,1,1 |
  1,1,1 |
  1,1,1 |
  1,1,1 |
  1,1,1 |
  0,1,1 |
  1,1,1 |
  1,1,1 |
  1,1,1 |
  0,0,1 |
  1,1,1 |
  0,0,1 |
  0,1,1 |
  0,1,1 |
  1,1,1 |
  1,1,1 |
|];

box_count = [
  6,
  5,
  5,
  7,
  8,
  4,
  3,
  5,
  6,
  7,
  7,
  6,
  7,
  7,
  7,
  4,
  5,
  8,
  4,
  6,
];
